Minimize
obj: 5a1 + 3a2 + 2a3 + 2a4

Subject To
c1: x0_0 = 1
c2: x1_1_L + x1_1_A + x1_2_L + x1_2_A = 1
c3: x4_2_L + x4_2_A + x4_3_L + x4_3_A = 1
c4: x8_3 + x8_4 = 1
c5: x9_4_L + x9_4_A + x9_5_L + x9_5_A = 1
c6: x2_1_L + x2_1_A + x2_2_L + x2_2_A + x2_3_L + x2_3_A = 1
c7: x5_2_L + x5_2_S + x5_3_L + x5_3_S + x5_4_L + x5_4_S = 1 
c8: x7_3 + x7_4 + x7_5 = 1 
c9: x3_1 + x3_2 + x3_3 + x3_4 = 1 
c10: x6_2_L + x6_2_A + x6_3_L + x6_3_A + x6_4_L + x6_4_A + x6_5_L + x6_5_A = 1 
c11: xn_5 = 1  

c12: 2x6_2_L + 2x6_2_A + 3x6_3_L + 3x6_3_A + 4x6_4_L + 4x6_4_A + 5x6_5_L + 5x6_5_A - (x3_1 + 2x3_2 + 3x3_3 + 4x3_4) >= 1
c13: 3x7_3 + 4x7_4 + 5x7_5 - (2x4_2_L +  2x4_2_A + 3x4_3_L + 3x4_3_A) >= 1
c14: 5xn_5 - (2x6_2_L + 2x6_2_A + 3x6_3_L + 3x6_3_A + 4x6_4_L + 4x6_4_A + 5x6_5_L + 5x6_5_A) >= 1 
c15: 5xn_5 - (3x7_3 + 4x7_4 + 5x7_5) >= 1 
c16: 5xn_5 - (4x9_4_L + 4x9_4_A + 5x9_5_L + 5x9_5_A) >= 1
c17: 4x9_4_L + 4x9_4_A + 5x9_5_L + 5x9_5_A - (3x8_3 + 4x8_4) >= 1
c18: 3x8_3 + 4x8_4 - (2x4_2_L + 2x4_2_A + 3x4_2_L + 3x4_3_A) >= 1
c19: 2x4_2_L + 2x4_2_A + 3x4_3_L + 3x4_3_A - (x1_1_L + x1_1_A + 2x1_2_L + 2x1_2_A) >= 1
c20: 4x9_4_L + 4x9_4_A + 5x9_5_L + 5x9_5_A - (2x5_2_L + 2x5_2_S + 3x5_3_L + 3x5_3_S + 4x5_4_L + 4x5_4_S) >= 1 
c21: 3x8_3 + 4x8_4 - (x2_1_L + x2_1_A + 2x2_2_L + 2x2_2_A + 3x2_3_L + 3x2_3_A) >= 1 
c22: 2x5_2_L + 2x5_2_S + 3x5_3_L + 3x5_3_S + 4x5_4_L + 4x5_4_S - (x2_1_L + x2_1_A + 2x2_2_L + 2x2_2_A + 3x2_3_L + 3x2_3_A) >=1

c23: x3_1 - a1 <= 0
c24: x3_2 - a1 <= 0 
c25: x7_3 + x3_3 + x8_3 - a1 <= 0
c26: x7_4 + x8_4 + x3_4 - a1 <= 0
c27: x7_5 - a1 <= 0
c28: x1_1_L + x2_1_L - a2 <= 0
c29: x4_2_L + x2_2_L + x5_2_L + x6_2_L + x1_2_L - a2 <= 0
c30: x2_3_L +  x4_3_L +  x5_3_L + x6_3_L - a2 <= 0
c31: x9_4_L + x6_4_L + x5_4_L - a2 <= 0
c32: x9_5_L + x6_5_L - a2 <= 0
c33: x1_1_A + x2_1_A - a3 <= 0
c34: x4_2_A + x6_2_A + x2_2_A + x1_2_A - a3 <= 0
c35: x2_3_A + x4_3_A +  x6_3_A - a3 <= 0
c36: x9_4_A + x6_4_A - a3 <= 0
c37: x9_5_A + x6_5_A - a3 <= 0
c38: x5_2_S - a4 <= 0
c39: x5_3_S - a4 <= 0
c40: x5_4_S - a4 <= 0
i0: x1_1_L >= 0
i1: x1_1_A >= 0
i2: x1_2_L >= 0
i3: x1_2_A >= 0
i4: x2_1_L >= 0
i5: x2_1_A >= 0
i6: x2_2_L >= 0
i7: x2_2_A >= 0
i8: x2_3_L >= 0
i80: x2_3_A >= 0
i60: x3_1 >= 0
i70: x3_2 >= 0
i81: x3_3 >= 0
i91: x3_4 >= 0
i92: x4_2_L >= 0
i10: x4_2_A >= 0
i11: x4_3_L >= 0
i12: x4_3_A >= 0
i13: x5_2_L >= 0
i14: x5_2_S >= 0
i15: x5_3_L >= 0
i16: x5_3_S >= 0
i17: x5_4_L >= 0
i18: x5_4_S >= 0
i19: x6_2_L >= 0
i20: x6_2_A >= 0
i21: x6_3_L >= 0
i22: x6_3_A >= 0
i23: x6_4_L >= 0
i24: x6_4_A >= 0
i25: x6_5_L >= 0
i26: x6_5_A >= 0
i27: x7_3 >= 0
i28: x7_4 >= 0
i29: x7_5 >= 0
i30: x8_3 >= 0
i31: x8_4 >= 0
i32: x9_4_L >= 0
i33: x9_4_A >= 0
i34: x9_5_L >= 0
i35: x9_5_A >= 0

Integer
x1_1_L x1_1_A x1_2_L x1_2_A x2_1_A x2_1_L x2_2_L x2_2_A x2_3_L x2_3_A x3_1 x3_2 x3_3 x3_4 x4_2_L x4_2_A x4_3_L x4_3_A x5_2_L x5_2_S x5_3_L x5_3_S x5_4_L x5_4_S x6_2_L x6_2_A x6_3_L x6_3_A x6_4_L x6_4_A  x6_5_L x6_5_A x7_3 x7_4 x7_5 x8_3 x8_4 x9_4_L x9_4_A x9_5_L x9_5_A

End
